instances/benchmark/p1_15_3-2.dzn
Alphabet = {A,C,G,T};
ns = 15;
nc = 3;
sl = 10;
neighbours = [| I(C),I(C),I(A) | I(C),I(C),I(A) | I(C),I(C),I(C) | I(A),I(C),I(C) | I(A),I(C),I(A) | I(A),I(A),I(A) | I(C),I(A),I(C) | I(C),I(A),I(A) | I(A),I(A),I(C) | I(A),I(A),I(C) | I(A),I(A),I(A) | I(C),I(C),I(C) | I(A),I(A),I(A) | I(A),I(A),I(A) | I(G),I(C),I(A) |];
